p cnf 20 8
a 1 2 3 0
e 4 5 6 7 8 0
a 9 0
e 10 0
a 11 0
e 12 0
a 13 14 0
e 15 16 0
a 17 18 19 0
e 20 0
-20 -15 -12 -16 0
-13 -7 1 -20 -2 0
18 -7 12 -8 -9 0
4 18 7 -20 -14 0
-12 -20 -15 -2 0
-10 12 -18 -11 5 0
-8 20 11 6 15 0
-19 -10 4 0
